problem_generation/data/GISP/train/er_n=60_m=1064_p=0.60_SET2_setparam=100.00_alpha=0.50_559.lp
maximize
OBJ:100x0 + 100x1 + 100x2 + 100x3 + 100x4 + 100x5 + 100x6 + 100x7 + 100x8 + 100x9 + 100x10 + 100x11 + 100x12 + 100x13 + 100x14 + 100x15 + 100x16 + 100x17 + 100x18 + 100x19 + 100x20 + 100x21 + 100x22 + 100x23 + 100x24 + 100x25 + 100x26 + 100x27 + 100x28 + 100x29 + 100x30 + 100x31 + 100x32 + 100x33 + 100x34 + 100x35 + 100x36 + 100x37 + 100x38 + 100x39 + 100x40 + 100x41 + 100x42 + 100x43 + 100x44 + 100x45 + 100x46 + 100x47 + 100x48 + 100x49 + 100x50 + 100x51 + 100x52 + 100x53 + 100x54 + 100x55 + 100x56 + 100x57 + 100x58 + 100x59 - y55_57 - y26_30 - y7_26 - y0_5 - y29_41 - y6_48 - y6_57 - y40_59 - y10_27 - y41_51 - y33_47 - y44_47 - y3_6 - y3_33 - y15_25 - y17_44 - y7_21 - y47_57 - y17_53 - y9_49 - y6_34 - y21_32 - y29_45 - y40_45 - y6_52 - y2_36 - y10_49 - y2_45 - y3_10 - y22_23 - y14_19 - y32_55 - y7_16 - y5_46 - y9_44 - y5_55 - y17_57 - y9_53 - y21_36 - y6_47 - y29_49 - y21_45 - y21_54 - y2_13 - y33_37 - y2_31 - y10_44 - y2_40 - y32_41 - y35_46 - y3_23 - y14_32 - y17_34 - y28_34 - y36_56 - y47_56 - y28_52 - y9_48 - y5_59 - y6_33 - y29_35 - y29_44 - y10_12 - y39_48 - y2_8 - y10_30 - y25_28 - y13_32 - y32_45 - y3_18 - y43_54 - y24_50 - y16_46 - y17_29 - y17_38 - y36_51 - y5_45 - y17_47 - y5_54 - y6_19 - y17_56 - y50_53 - y6_28 - y21_26 - y6_37 - y2_3 - y10_16 - y39_52 - y31_48 - y10_25 - y20_57 - y31_57 - y54_59 - y12_53 - y23_53 - y2_30 - y13_27 - y1_34 - y32_49 - y1_43 - y24_45 - y43_58 - y1_52 - y24_54 - y35_54 - y16_50 - y16_59 - y9_20 - y28_33 - y3_47 - y9_47 - y6_23 - y27_55 - y42_53 - y20_34 - y31_43 - y39_56 - y12_39 - y20_52 - y23_48 - y32_44 - y16_27 - y43_44 - y1_38 - y13_40 - y1_47 - y13_49 - y5_8 - y35_58 - y16_54 - y5_17 - y46_55 - y17_37 - y28_37 - y9_33 - y27_50 - y19_46 - y42_48 - y11_51 - y39_42 - y31_38 - y12_34 - y12_52 - y13_17 - y23_52 - y4_48 - y16_22 - y34_58 - y13_35 - y1_51 - y5_12 - y9_10 - y5_21 - y17_23 - y57_59 - y9_28 - y7_58 - y27_54 - y0_46 - y31_33 - y39_46 - y23_29 - y20_42 - y12_38 - y4_34 - y12_47 - y23_47 - y23_56 - y53_57 - y16_17 - y45_53 - y1_28 - y38_41 - y5_16 - y5_25 - y38_59 - y49_59 - y27_31 - y27_49 - y0_41 - y19_54 - y0_50 - y0_59 - y23_24 - y39_41 - y20_37 - y4_20 - y31_37 - y12_33 - y1_5 - y1_14 - y45_48 - y22_55 - y34_57 - y45_57 - y16_30 - y26_34 - y5_11 - y46_58 - y7_39 - y15_52 - y26_52 - y49_54 - y7_57 - y0_18 - y30_31 - y27_44 - y30_40 - y27_53 - y8_49 - y20_23 - y4_6 - y0_54 - y12_19 - y52_55 - y31_32 - y22_50 - y34_52 - y14_55 - y7_25 - y15_38 - y38_40 - y18_34 - y11_13 - y8_35 - y30_35 - y0_31 - y52_59 - y10_53 - y44_55 - y25_51 - y4_28 - y2_58 - y45_56 - y3_50 - y14_50 - y37_52 - y15_33 - y15_51 - y26_51 - y7_47 - y18_47 - y48_57 - y29_53 - y19_30 - y41_45 - y10_48 - y33_50 - y44_50 - y33_59 - y25_55 - y14_27 - y34_42 - y3_36 - y14_36 - y22_49 - y34_51 - y37_38 - y45_51 - y22_58 - y15_19 - y15_28 - y8_16 - y0_12 - y11_12 - y19_25 - y40_48 - y6_55 - y21_53 - y33_36 - y25_32 - y41_58 - y33_54 - y2_48 - y14_22 - y3_40 - y3_49 - y15_23 - y55_59 - y47_55 - y17_51 - y28_51 - y0_7 - y29_43 - y29_52 - y40_52 - y21_57 - y10_20 - y41_44 - y25_27 - y25_36 - y33_49 - y44_49 - y3_8 - y25_54 - y14_17 - y22_30 - y22_39 - y13_58 - y7_14 - y36_50 - y47_50 - y17_46 - y9_42 - y28_55 - y9_51 - y6_36 - y29_38 - y21_34 - y40_47 - y10_33 - y33_35 - y10_42 - y2_38 - y10_51 - y2_56 - y32_57 - y55_58 - y17_41 - y5_48 - y17_50 - y28_50 - y17_59 - y29_42 - y21_38 - y2_6 - y10_19 - y39_55 - y2_24 - y25_26 - y2_33 - y3_7 - y14_16 - y13_48 - y35_48 - y16_44 - y1_55 - y16_53 - y17_18 - y17_27 - y36_40 - y9_23 - y17_36 - y28_36 - y36_49 - y9_41 - y5_52 - y21_24 - y2_10 - y20_46 - y39_59 - y2_19 - y12_51 - y13_25 - y13_34 - y24_34 - y43_47 - y1_50 - y13_52 - y17_31 - y9_27 - y5_38 - y17_40 - y50_55 - y6_30 - y42_51 - y21_28 - y2_5 - y20_41 - y10_18 - y4_42 - y12_55 - y51_55 - y1_36 - y24_38 - y32_51 - y24_47 - y16_43 - y1_54 - y5_15 - y46_53 - y9_22 - y38_58 - y28_35 - y9_31 - y5_42 - y27_57 - y50_59 - y19_53 - y20_36 - y10_13 - y23_32 - y39_49 - y23_41 - y12_59 - y13_24 - y1_22 - y32_37 - y13_33 - y16_29 - y13_42 - y5_10 - y1_58 - y46_48 - y5_37 - y9_35 - y8_39 - y30_48 - y20_22 - y11_53 - y4_23 - y20_49 - y31_49 - y1_8 - y23_54 - y1_17 - y13_28 - y16_24 - y24_37 - y38_39 - y5_14 - y9_12 - y15_46 - y26_55 - y38_57 - y5_32 - y49_57 - y8_25 - y27_38 - y8_34 - y30_34 - y27_47 - y8_43 - y30_43 - y42_45 - y11_39 - y20_44 - y4_27 - y34_46 - y1_21 - y16_19 - y34_55 - y37_51 - y26_41 - y38_52 - y15_59 - y27_33 - y8_47 - y0_43 - y20_21 - y0_52 - y12_17 - y20_30 - y4_31 - y1_7 - y1_25 - y37_46 - y16_23 - y22_57 - y34_59 - y56_59 - y15_36 - y26_36 - y46_51 - y7_32 - y18_32 - y15_45 - y38_47 - y7_41 - y7_50 - y18_50 - y0_11 - y19_24 - y0_20 - y27_46 - y11_29 - y8_42 - y19_42 - y30_42 - y11_38 - y19_51 - y0_47 - y11_47 - y20_25 - y12_21 - y34_36 - y1_11 - y3_39 - y14_39 - y34_54 - y3_48 - y26_31 - y37_49 - y26_40 - y7_45 - y18_45 - y26_58 - y7_54 - y8_19 - y48_55 - y11_15 - y8_28 - y19_28 - y21_56 - y12_16 - y41_52 - y10_46 - y44_57 - y2_51 - y22_29 - y34_40 - y3_34 - y34_49 - y3_43 - y37_45 - y22_56 - y45_58 - y37_54 - y15_26 - y7_22 - y26_35 - y7_40 - y8_14 - y48_59 - y6_53 - y10_41 - y25_39 - y33_52 - y44_52 - y3_20 - y22_33 - y34_35 - y34_44 - y22_51 - y14_47
 Subject to
C1: x0+x1 <=1 
C2: x0+x5-y0_5 <=1 
C3: x0+x6 <=1 
C4: x0+x7-y0_7 <=1 
C5: x0+x8 <=1 
C6: x0+x11-y0_11 <=1 
C7: x0+x12-y0_12 <=1 
C8: x0+x13 <=1 
C9: x0+x15 <=1 
C10: x0+x18-y0_18 <=1 
C11: x0+x20-y0_20 <=1 
C12: x0+x23 <=1 
C13: x0+x25 <=1 
C14: x0+x26 <=1 
C15: x0+x28 <=1 
C16: x0+x29 <=1 
C17: x0+x30 <=1 
C18: x0+x31-y0_31 <=1 
C19: x0+x34 <=1 
C20: x0+x41-y0_41 <=1 
C21: x0+x43-y0_43 <=1 
C22: x0+x44 <=1 
C23: x0+x45 <=1 
C24: x0+x46-y0_46 <=1 
C25: x0+x47-y0_47 <=1 
C26: x0+x49 <=1 
C27: x0+x50-y0_50 <=1 
C28: x0+x51 <=1 
C29: x0+x52-y0_52 <=1 
C30: x0+x54-y0_54 <=1 
C31: x0+x56 <=1 
C32: x0+x57 <=1 
C33: x0+x59-y0_59 <=1 
C34: x1+x3 <=1 
C35: x1+x5-y1_5 <=1 
C36: x1+x7-y1_7 <=1 
C37: x1+x8-y1_8 <=1 
C38: x1+x10 <=1 
C39: x1+x11-y1_11 <=1 
C40: x1+x13 <=1 
C41: x1+x14-y1_14 <=1 
C42: x1+x15 <=1 
C43: x1+x16 <=1 
C44: x1+x17-y1_17 <=1 
C45: x1+x18 <=1 
C46: x1+x20 <=1 
C47: x1+x21-y1_21 <=1 
C48: x1+x22-y1_22 <=1 
C49: x1+x23 <=1 
C50: x1+x25-y1_25 <=1 
C51: x1+x26 <=1 
C52: x1+x27 <=1 
C53: x1+x28-y1_28 <=1 
C54: x1+x29 <=1 
C55: x1+x30 <=1 
C56: x1+x32 <=1 
C57: x1+x33 <=1 
C58: x1+x34-y1_34 <=1 
C59: x1+x36-y1_36 <=1 
C60: x1+x38-y1_38 <=1 
C61: x1+x40 <=1 
C62: x1+x42 <=1 
C63: x1+x43-y1_43 <=1 
C64: x1+x44 <=1 
C65: x1+x46 <=1 
C66: x1+x47-y1_47 <=1 
C67: x1+x48 <=1 
C68: x1+x50-y1_50 <=1 
C69: x1+x51-y1_51 <=1 
C70: x1+x52-y1_52 <=1 
C71: x1+x54-y1_54 <=1 
C72: x1+x55-y1_55 <=1 
C73: x1+x56 <=1 
C74: x1+x58-y1_58 <=1 
C75: x1+x59 <=1 
C76: x2+x3-y2_3 <=1 
C77: x2+x5-y2_5 <=1 
C78: x2+x6-y2_6 <=1 
C79: x2+x8-y2_8 <=1 
C80: x2+x9 <=1 
C81: x2+x10-y2_10 <=1 
C82: x2+x11 <=1 
C83: x2+x12 <=1 
C84: x2+x13-y2_13 <=1 
C85: x2+x19-y2_19 <=1 
C86: x2+x20 <=1 
C87: x2+x22 <=1 
C88: x2+x24-y2_24 <=1 
C89: x2+x27 <=1 
C90: x2+x29 <=1 
C91: x2+x30-y2_30 <=1 
C92: x2+x31-y2_31 <=1 
C93: x2+x32 <=1 
C94: x2+x33-y2_33 <=1 
C95: x2+x34 <=1 
C96: x2+x35 <=1 
C97: x2+x36-y2_36 <=1 
C98: x2+x38-y2_38 <=1 
C99: x2+x40-y2_40 <=1 
C100: x2+x41 <=1 
C101: x2+x45-y2_45 <=1 
C102: x2+x46 <=1 
C103: x2+x48-y2_48 <=1 
C104: x2+x50 <=1 
C105: x2+x51-y2_51 <=1 
C106: x2+x52 <=1 
C107: x2+x54 <=1 
C108: x2+x55 <=1 
C109: x2+x56-y2_56 <=1 
C110: x2+x58-y2_58 <=1 
C111: x3+x4 <=1 
C112: x3+x6-y3_6 <=1 
C113: x3+x7-y3_7 <=1 
C114: x3+x8-y3_8 <=1 
C115: x3+x10-y3_10 <=1 
C116: x3+x12 <=1 
C117: x3+x13 <=1 
C118: x3+x15 <=1 
C119: x3+x16 <=1 
C120: x3+x17 <=1 
C121: x3+x18-y3_18 <=1 
C122: x3+x20-y3_20 <=1 
C123: x3+x21 <=1 
C124: x3+x23-y3_23 <=1 
C125: x3+x26 <=1 
C126: x3+x27 <=1 
C127: x3+x28 <=1 
C128: x3+x29 <=1 
C129: x3+x32 <=1 
C130: x3+x33-y3_33 <=1 
C131: x3+x34-y3_34 <=1 
C132: x3+x35 <=1 
C133: x3+x36-y3_36 <=1 
C134: x3+x38 <=1 
C135: x3+x39-y3_39 <=1 
C136: x3+x40-y3_40 <=1 
C137: x3+x42 <=1 
C138: x3+x43-y3_43 <=1 
C139: x3+x44 <=1 
C140: x3+x47-y3_47 <=1 
C141: x3+x48-y3_48 <=1 
C142: x3+x49-y3_49 <=1 
C143: x3+x50-y3_50 <=1 
C144: x3+x54 <=1 
C145: x3+x57 <=1 
C146: x4+x5 <=1 
C147: x4+x6-y4_6 <=1 
C148: x4+x8 <=1 
C149: x4+x9 <=1 
C150: x4+x10 <=1 
C151: x4+x13 <=1 
C152: x4+x14 <=1 
C153: x4+x19 <=1 
C154: x4+x20-y4_20 <=1 
C155: x4+x23-y4_23 <=1 
C156: x4+x24 <=1 
C157: x4+x25 <=1 
C158: x4+x27-y4_27 <=1 
C159: x4+x28-y4_28 <=1 
C160: x4+x30 <=1 
C161: x4+x31-y4_31 <=1 
C162: x4+x33 <=1 
C163: x4+x34-y4_34 <=1 
C164: x4+x35 <=1 
C165: x4+x37 <=1 
C166: x4+x41 <=1 
C167: x4+x42-y4_42 <=1 
C168: x4+x47 <=1 
C169: x4+x48-y4_48 <=1 
C170: x4+x49 <=1 
C171: x4+x50 <=1 
C172: x4+x51 <=1 
C173: x4+x52 <=1 
C174: x4+x54 <=1 
C175: x4+x55 <=1 
C176: x5+x7 <=1 
C177: x5+x8-y5_8 <=1 
C178: x5+x10-y5_10 <=1 
C179: x5+x11-y5_11 <=1 
C180: x5+x12-y5_12 <=1 
C181: x5+x14-y5_14 <=1 
C182: x5+x15-y5_15 <=1 
C183: x5+x16-y5_16 <=1 
C184: x5+x17-y5_17 <=1 
C185: x5+x18 <=1 
C186: x5+x19 <=1 
C187: x5+x21-y5_21 <=1 
C188: x5+x22 <=1 
C189: x5+x23 <=1 
C190: x5+x25-y5_25 <=1 
C191: x5+x27 <=1 
C192: x5+x30 <=1 
C193: x5+x31 <=1 
C194: x5+x32-y5_32 <=1 
C195: x5+x33 <=1 
C196: x5+x34 <=1 
C197: x5+x36 <=1 
C198: x5+x37-y5_37 <=1 
C199: x5+x38-y5_38 <=1 
C200: x5+x42-y5_42 <=1 
C201: x5+x43 <=1 
C202: x5+x44 <=1 
C203: x5+x45-y5_45 <=1 
C204: x5+x46-y5_46 <=1 
C205: x5+x47 <=1 
C206: x5+x48-y5_48 <=1 
C207: x5+x49 <=1 
C208: x5+x52-y5_52 <=1 
C209: x5+x54-y5_54 <=1 
C210: x5+x55-y5_55 <=1 
C211: x5+x56 <=1 
C212: x5+x58 <=1 
C213: x5+x59-y5_59 <=1 
C214: x6+x7 <=1 
C215: x6+x9 <=1 
C216: x6+x14 <=1 
C217: x6+x15 <=1 
C218: x6+x17 <=1 
C219: x6+x18 <=1 
C220: x6+x19-y6_19 <=1 
C221: x6+x20 <=1 
C222: x6+x23-y6_23 <=1 
C223: x6+x25 <=1 
C224: x6+x28-y6_28 <=1 
C225: x6+x30-y6_30 <=1 
C226: x6+x32 <=1 
C227: x6+x33-y6_33 <=1 
C228: x6+x34-y6_34 <=1 
C229: x6+x36-y6_36 <=1 
C230: x6+x37-y6_37 <=1 
C231: x6+x40 <=1 
C232: x6+x42 <=1 
C233: x6+x44 <=1 
C234: x6+x47-y6_47 <=1 
C235: x6+x48-y6_48 <=1 
C236: x6+x49 <=1 
C237: x6+x50 <=1 
C238: x6+x52-y6_52 <=1 
C239: x6+x53-y6_53 <=1 
C240: x6+x54 <=1 
C241: x6+x55-y6_55 <=1 
C242: x6+x57-y6_57 <=1 
C243: x7+x8 <=1 
C244: x7+x9 <=1 
C245: x7+x10 <=1 
C246: x7+x11 <=1 
C247: x7+x14-y7_14 <=1 
C248: x7+x16-y7_16 <=1 
C249: x7+x18 <=1 
C250: x7+x21-y7_21 <=1 
C251: x7+x22-y7_22 <=1 
C252: x7+x24 <=1 
C253: x7+x25-y7_25 <=1 
C254: x7+x26-y7_26 <=1 
C255: x7+x27 <=1 
C256: x7+x32-y7_32 <=1 
C257: x7+x33 <=1 
C258: x7+x35 <=1 
C259: x7+x38 <=1 
C260: x7+x39-y7_39 <=1 
C261: x7+x40-y7_40 <=1 
C262: x7+x41-y7_41 <=1 
C263: x7+x42 <=1 
C264: x7+x44 <=1 
C265: x7+x45-y7_45 <=1 
C266: x7+x47-y7_47 <=1 
C267: x7+x50-y7_50 <=1 
C268: x7+x52 <=1 
C269: x7+x53 <=1 
C270: x7+x54-y7_54 <=1 
C271: x7+x57-y7_57 <=1 
C272: x7+x58-y7_58 <=1 
C273: x7+x59 <=1 
C274: x8+x9 <=1 
C275: x8+x10 <=1 
C276: x8+x11 <=1 
C277: x8+x14-y8_14 <=1 
C278: x8+x15 <=1 
C279: x8+x16-y8_16 <=1 
C280: x8+x19-y8_19 <=1 
C281: x8+x21 <=1 
C282: x8+x25-y8_25 <=1 
C283: x8+x27 <=1 
C284: x8+x28-y8_28 <=1 
C285: x8+x29 <=1 
C286: x8+x31 <=1 
C287: x8+x32 <=1 
C288: x8+x34-y8_34 <=1 
C289: x8+x35-y8_35 <=1 
C290: x8+x37 <=1 
C291: x8+x39-y8_39 <=1 
C292: x8+x42-y8_42 <=1 
C293: x8+x43-y8_43 <=1 
C294: x8+x47-y8_47 <=1 
C295: x8+x49-y8_49 <=1 
C296: x8+x50 <=1 
C297: x8+x51 <=1 
C298: x8+x53 <=1 
C299: x8+x55 <=1 
C300: x8+x57 <=1 
C301: x9+x10-y9_10 <=1 
C302: x9+x12-y9_12 <=1 
C303: x9+x16 <=1 
C304: x9+x17 <=1 
C305: x9+x19 <=1 
C306: x9+x20-y9_20 <=1 
C307: x9+x21 <=1 
C308: x9+x22-y9_22 <=1 
C309: x9+x23-y9_23 <=1 
C310: x9+x24 <=1 
C311: x9+x27-y9_27 <=1 
C312: x9+x28-y9_28 <=1 
C313: x9+x30 <=1 
C314: x9+x31-y9_31 <=1 
C315: x9+x33-y9_33 <=1 
C316: x9+x35-y9_35 <=1 
C317: x9+x39 <=1 
C318: x9+x40 <=1 
C319: x9+x41-y9_41 <=1 
C320: x9+x42-y9_42 <=1 
C321: x9+x43 <=1 
C322: x9+x44-y9_44 <=1 
C323: x9+x45 <=1 
C324: x9+x47-y9_47 <=1 
C325: x9+x48-y9_48 <=1 
C326: x9+x49-y9_49 <=1 
C327: x9+x51-y9_51 <=1 
C328: x9+x53-y9_53 <=1 
C329: x9+x54 <=1 
C330: x9+x55 <=1 
C331: x9+x59 <=1 
C332: x10+x12-y10_12 <=1 
C333: x10+x13-y10_13 <=1 
C334: x10+x14 <=1 
C335: x10+x16-y10_16 <=1 
C336: x10+x17 <=1 
C337: x10+x18-y10_18 <=1 
C338: x10+x19-y10_19 <=1 
C339: x10+x20-y10_20 <=1 
C340: x10+x21 <=1 
C341: x10+x23 <=1 
C342: x10+x25-y10_25 <=1 
C343: x10+x26 <=1 
C344: x10+x27-y10_27 <=1 
C345: x10+x30-y10_30 <=1 
C346: x10+x31 <=1 
C347: x10+x32 <=1 
C348: x10+x33-y10_33 <=1 
C349: x10+x34 <=1 
C350: x10+x36 <=1 
C351: x10+x37 <=1 
C352: x10+x39 <=1 
C353: x10+x41-y10_41 <=1 
C354: x10+x42-y10_42 <=1 
C355: x10+x44-y10_44 <=1 
C356: x10+x45 <=1 
C357: x10+x46-y10_46 <=1 
C358: x10+x48-y10_48 <=1 
C359: x10+x49-y10_49 <=1 
C360: x10+x51-y10_51 <=1 
C361: x10+x53-y10_53 <=1 
C362: x11+x12-y11_12 <=1 
C363: x11+x13-y11_13 <=1 
C364: x11+x14 <=1 
C365: x11+x15-y11_15 <=1 
C366: x11+x21 <=1 
C367: x11+x24 <=1 
C368: x11+x26 <=1 
C369: x11+x29-y11_29 <=1 
C370: x11+x30 <=1 
C371: x11+x31 <=1 
C372: x11+x38-y11_38 <=1 
C373: x11+x39-y11_39 <=1 
C374: x11+x41 <=1 
C375: x11+x42 <=1 
C376: x11+x45 <=1 
C377: x11+x46 <=1 
C378: x11+x47-y11_47 <=1 
C379: x11+x49 <=1 
C380: x11+x51-y11_51 <=1 
C381: x11+x53-y11_53 <=1 
C382: x11+x54 <=1 
C383: x11+x55 <=1 
C384: x11+x56 <=1 
C385: x11+x58 <=1 
C386: x11+x59 <=1 
C387: x12+x14 <=1 
C388: x12+x15 <=1 
C389: x12+x16-y12_16 <=1 
C390: x12+x17-y12_17 <=1 
C391: x12+x18 <=1 
C392: x12+x19-y12_19 <=1 
C393: x12+x20 <=1 
C394: x12+x21-y12_21 <=1 
C395: x12+x24 <=1 
C396: x12+x25 <=1 
C397: x12+x27 <=1 
C398: x12+x28 <=1 
C399: x12+x29 <=1 
C400: x12+x31 <=1 
C401: x12+x32 <=1 
C402: x12+x33-y12_33 <=1 
C403: x12+x34-y12_34 <=1 
C404: x12+x37 <=1 
C405: x12+x38-y12_38 <=1 
C406: x12+x39-y12_39 <=1 
C407: x12+x44 <=1 
C408: x12+x47-y12_47 <=1 
C409: x12+x51-y12_51 <=1 
C410: x12+x52-y12_52 <=1 
C411: x12+x53-y12_53 <=1 
C412: x12+x55-y12_55 <=1 
C413: x12+x59-y12_59 <=1 
C414: x13+x14 <=1 
C415: x13+x15 <=1 
C416: x13+x16 <=1 
C417: x13+x17-y13_17 <=1 
C418: x13+x19 <=1 
C419: x13+x20 <=1 
C420: x13+x24-y13_24 <=1 
C421: x13+x25-y13_25 <=1 
C422: x13+x26 <=1 
C423: x13+x27-y13_27 <=1 
C424: x13+x28-y13_28 <=1 
C425: x13+x32-y13_32 <=1 
C426: x13+x33-y13_33 <=1 
C427: x13+x34-y13_34 <=1 
C428: x13+x35-y13_35 <=1 
C429: x13+x36 <=1 
C430: x13+x39 <=1 
C431: x13+x40-y13_40 <=1 
C432: x13+x42-y13_42 <=1 
C433: x13+x46 <=1 
C434: x13+x48-y13_48 <=1 
C435: x13+x49-y13_49 <=1 
C436: x13+x50 <=1 
C437: x13+x52-y13_52 <=1 
C438: x13+x54 <=1 
C439: x13+x55 <=1 
C440: x13+x57 <=1 
C441: x13+x58-y13_58 <=1 
C442: x13+x59 <=1 
C443: x14+x16-y14_16 <=1 
C444: x14+x17-y14_17 <=1 
C445: x14+x18 <=1 
C446: x14+x19-y14_19 <=1 
C447: x14+x22-y14_22 <=1 
C448: x14+x24 <=1 
C449: x14+x25 <=1 
C450: x14+x27-y14_27 <=1 
C451: x14+x29 <=1 
C452: x14+x30 <=1 
C453: x14+x32-y14_32 <=1 
C454: x14+x33 <=1 
C455: x14+x36-y14_36 <=1 
C456: x14+x37 <=1 
C457: x14+x38 <=1 
C458: x14+x39-y14_39 <=1 
C459: x14+x40 <=1 
C460: x14+x43 <=1 
C461: x14+x44 <=1 
C462: x14+x45 <=1 
C463: x14+x46 <=1 
C464: x14+x47-y14_47 <=1 
C465: x14+x48 <=1 
C466: x14+x50-y14_50 <=1 
C467: x14+x54 <=1 
C468: x14+x55-y14_55 <=1 
C469: x14+x59 <=1 
C470: x15+x16 <=1 
C471: x15+x18 <=1 
C472: x15+x19-y15_19 <=1 
C473: x15+x23-y15_23 <=1 
C474: x15+x25-y15_25 <=1 
C475: x15+x26-y15_26 <=1 
C476: x15+x28-y15_28 <=1 
C477: x15+x31 <=1 
C478: x15+x33-y15_33 <=1 
C479: x15+x35 <=1 
C480: x15+x36-y15_36 <=1 
C481: x15+x37 <=1 
C482: x15+x38-y15_38 <=1 
C483: x15+x39 <=1 
C484: x15+x42 <=1 
C485: x15+x43 <=1 
C486: x15+x44 <=1 
C487: x15+x45-y15_45 <=1 
C488: x15+x46-y15_46 <=1 
C489: x15+x48 <=1 
C490: x15+x51-y15_51 <=1 
C491: x15+x52-y15_52 <=1 
C492: x15+x55 <=1 
C493: x15+x59-y15_59 <=1 
C494: x16+x17-y16_17 <=1 
C495: x16+x19-y16_19 <=1 
C496: x16+x20 <=1 
C497: x16+x21 <=1 
C498: x16+x22-y16_22 <=1 
C499: x16+x23-y16_23 <=1 
C500: x16+x24-y16_24 <=1 
C501: x16+x25 <=1 
C502: x16+x26 <=1 
C503: x16+x27-y16_27 <=1 
C504: x16+x28 <=1 
C505: x16+x29-y16_29 <=1 
C506: x16+x30-y16_30 <=1 
C507: x16+x32 <=1 
C508: x16+x33 <=1 
C509: x16+x34 <=1 
C510: x16+x36 <=1 
C511: x16+x37 <=1 
C512: x16+x38 <=1 
C513: x16+x43-y16_43 <=1 
C514: x16+x44-y16_44 <=1 
C515: x16+x46-y16_46 <=1 
C516: x16+x48 <=1 
C517: x16+x50-y16_50 <=1 
C518: x16+x52 <=1 
C519: x16+x53-y16_53 <=1 
C520: x16+x54-y16_54 <=1 
C521: x16+x57 <=1 
C522: x16+x59-y16_59 <=1 
C523: x17+x18-y17_18 <=1 
C524: x17+x20 <=1 
C525: x17+x21 <=1 
C526: x17+x23-y17_23 <=1 
C527: x17+x24 <=1 
C528: x17+x26 <=1 
C529: x17+x27-y17_27 <=1 
C530: x17+x29-y17_29 <=1 
C531: x17+x30 <=1 
C532: x17+x31-y17_31 <=1 
C533: x17+x32 <=1 
C534: x17+x34-y17_34 <=1 
C535: x17+x35 <=1 
C536: x17+x36-y17_36 <=1 
C537: x17+x37-y17_37 <=1 
C538: x17+x38-y17_38 <=1 
C539: x17+x40-y17_40 <=1 
C540: x17+x41-y17_41 <=1 
C541: x17+x44-y17_44 <=1 
C542: x17+x46-y17_46 <=1 
C543: x17+x47-y17_47 <=1 
C544: x17+x48 <=1 
C545: x17+x50-y17_50 <=1 
C546: x17+x51-y17_51 <=1 
C547: x17+x53-y17_53 <=1 
C548: x17+x54 <=1 
C549: x17+x56-y17_56 <=1 
C550: x17+x57-y17_57 <=1 
C551: x17+x59-y17_59 <=1 
C552: x18+x19 <=1 
C553: x18+x20 <=1 
C554: x18+x22 <=1 
C555: x18+x23 <=1 
C556: x18+x25 <=1 
C557: x18+x28 <=1 
C558: x18+x30 <=1 
C559: x18+x31 <=1 
C560: x18+x32-y18_32 <=1 
C561: x18+x34-y18_34 <=1 
C562: x18+x35 <=1 
C563: x18+x36 <=1 
C564: x18+x41 <=1 
C565: x18+x42 <=1 
C566: x18+x43 <=1 
C567: x18+x44 <=1 
C568: x18+x45-y18_45 <=1 
C569: x18+x47-y18_47 <=1 
C570: x18+x49 <=1 
C571: x18+x50-y18_50 <=1 
C572: x18+x53 <=1 
C573: x18+x54 <=1 
C574: x18+x58 <=1 
C575: x19+x24-y19_24 <=1 
C576: x19+x25-y19_25 <=1 
C577: x19+x28-y19_28 <=1 
C578: x19+x29 <=1 
C579: x19+x30-y19_30 <=1 
C580: x19+x31 <=1 
C581: x19+x32 <=1 
C582: x19+x34 <=1 
C583: x19+x35 <=1 
C584: x19+x38 <=1 
C585: x19+x40 <=1 
C586: x19+x42-y19_42 <=1 
C587: x19+x46-y19_46 <=1 
C588: x19+x49 <=1 
C589: x19+x50 <=1 
C590: x19+x51-y19_51 <=1 
C591: x19+x53-y19_53 <=1 
C592: x19+x54-y19_54 <=1 
C593: x19+x55 <=1 
C594: x19+x56 <=1 
C595: x19+x58 <=1 
C596: x19+x59 <=1 
C597: x20+x21-y20_21 <=1 
C598: x20+x22-y20_22 <=1 
C599: x20+x23-y20_23 <=1 
C600: x20+x25-y20_25 <=1 
C601: x20+x26 <=1 
C602: x20+x27 <=1 
C603: x20+x30-y20_30 <=1 
C604: x20+x32 <=1 
C605: x20+x33 <=1 
C606: x20+x34-y20_34 <=1 
C607: x20+x36-y20_36 <=1 
C608: x20+x37-y20_37 <=1 
C609: x20+x39 <=1 
C610: x20+x40 <=1 
C611: x20+x41-y20_41 <=1 
C612: x20+x42-y20_42 <=1 
C613: x20+x44-y20_44 <=1 
C614: x20+x45 <=1 
C615: x20+x46-y20_46 <=1 
C616: x20+x47 <=1 
C617: x20+x48 <=1 
C618: x20+x49-y20_49 <=1 
C619: x20+x50 <=1 
C620: x20+x52-y20_52 <=1 
C621: x20+x53 <=1 
C622: x20+x56 <=1 
C623: x20+x57-y20_57 <=1 
C624: x21+x24-y21_24 <=1 
C625: x21+x26-y21_26 <=1 
C626: x21+x28-y21_28 <=1 
C627: x21+x29 <=1 
C628: x21+x32-y21_32 <=1 
C629: x21+x33 <=1 
C630: x21+x34-y21_34 <=1 
C631: x21+x36-y21_36 <=1 
C632: x21+x38-y21_38 <=1 
C633: x21+x39 <=1 
C634: x21+x44 <=1 
C635: x21+x45-y21_45 <=1 
C636: x21+x46 <=1 
C637: x21+x47 <=1 
C638: x21+x49 <=1 
C639: x21+x51 <=1 
C640: x21+x52 <=1 
C641: x21+x53-y21_53 <=1 
C642: x21+x54-y21_54 <=1 
C643: x21+x56-y21_56 <=1 
C644: x21+x57-y21_57 <=1 
C645: x21+x59 <=1 
C646: x22+x23-y22_23 <=1 
C647: x22+x27 <=1 
C648: x22+x29-y22_29 <=1 
C649: x22+x30-y22_30 <=1 
C650: x22+x33-y22_33 <=1 
C651: x22+x39-y22_39 <=1 
C652: x22+x41 <=1 
C653: x22+x44 <=1 
C654: x22+x45 <=1 
C655: x22+x46 <=1 
C656: x22+x48 <=1 
C657: x22+x49-y22_49 <=1 
C658: x22+x50-y22_50 <=1 
C659: x22+x51-y22_51 <=1 
C660: x22+x55-y22_55 <=1 
C661: x22+x56-y22_56 <=1 
C662: x22+x57-y22_57 <=1 
C663: x22+x58-y22_58 <=1 
C664: x23+x24-y23_24 <=1 
C665: x23+x29-y23_29 <=1 
C666: x23+x32-y23_32 <=1 
C667: x23+x34 <=1 
C668: x23+x38 <=1 
C669: x23+x41-y23_41 <=1 
C670: x23+x42 <=1 
C671: x23+x43 <=1 
C672: x23+x44 <=1 
C673: x23+x46 <=1 
C674: x23+x47-y23_47 <=1 
C675: x23+x48-y23_48 <=1 
C676: x23+x49 <=1 
C677: x23+x50 <=1 
C678: x23+x51 <=1 
C679: x23+x52-y23_52 <=1 
C680: x23+x53-y23_53 <=1 
C681: x23+x54-y23_54 <=1 
C682: x23+x56-y23_56 <=1 
C683: x23+x57 <=1 
C684: x23+x58 <=1 
C685: x24+x26 <=1 
C686: x24+x27 <=1 
C687: x24+x29 <=1 
C688: x24+x31 <=1 
C689: x24+x32 <=1 
C690: x24+x33 <=1 
C691: x24+x34-y24_34 <=1 
C692: x24+x35 <=1 
C693: x24+x36 <=1 
C694: x24+x37-y24_37 <=1 
C695: x24+x38-y24_38 <=1 
C696: x24+x42 <=1 
C697: x24+x43 <=1 
C698: x24+x45-y24_45 <=1 
C699: x24+x47-y24_47 <=1 
C700: x24+x49 <=1 
C701: x24+x50-y24_50 <=1 
C702: x24+x51 <=1 
C703: x24+x54-y24_54 <=1 
C704: x24+x55 <=1 
C705: x25+x26-y25_26 <=1 
C706: x25+x27-y25_27 <=1 
C707: x25+x28-y25_28 <=1 
C708: x25+x29 <=1 
C709: x25+x30 <=1 
C710: x25+x32-y25_32 <=1 
C711: x25+x34 <=1 
C712: x25+x36-y25_36 <=1 
C713: x25+x37 <=1 
C714: x25+x39-y25_39 <=1 
C715: x25+x44 <=1 
C716: x25+x47 <=1 
C717: x25+x49 <=1 
C718: x25+x51-y25_51 <=1 
C719: x25+x52 <=1 
C720: x25+x53 <=1 
C721: x25+x54-y25_54 <=1 
C722: x25+x55-y25_55 <=1 
C723: x25+x56 <=1 
C724: x25+x59 <=1 
C725: x26+x27 <=1 
C726: x26+x28 <=1 
C727: x26+x30-y26_30 <=1 
C728: x26+x31-y26_31 <=1 
C729: x26+x32 <=1 
C730: x26+x34-y26_34 <=1 
C731: x26+x35-y26_35 <=1 
C732: x26+x36-y26_36 <=1 
C733: x26+x38 <=1 
C734: x26+x39 <=1 
C735: x26+x40-y26_40 <=1 
C736: x26+x41-y26_41 <=1 
C737: x26+x43 <=1 
C738: x26+x44 <=1 
C739: x26+x46 <=1 
C740: x26+x48 <=1 
C741: x26+x49 <=1 
C742: x26+x50 <=1 
C743: x26+x51-y26_51 <=1 
C744: x26+x52-y26_52 <=1 
C745: x26+x53 <=1 
C746: x26+x54 <=1 
C747: x26+x55-y26_55 <=1 
C748: x26+x56 <=1 
C749: x26+x57 <=1 
C750: x26+x58-y26_58 <=1 
C751: x26+x59 <=1 
C752: x27+x28 <=1 
C753: x27+x31-y27_31 <=1 
C754: x27+x33-y27_33 <=1 
C755: x27+x36 <=1 
C756: x27+x37 <=1 
C757: x27+x38-y27_38 <=1 
C758: x27+x39 <=1 
C759: x27+x41 <=1 
C760: x27+x42 <=1 
C761: x27+x44-y27_44 <=1 
C762: x27+x45 <=1 
C763: x27+x46-y27_46 <=1 
C764: x27+x47-y27_47 <=1 
C765: x27+x49-y27_49 <=1 
C766: x27+x50-y27_50 <=1 
C767: x27+x51 <=1 
C768: x27+x53-y27_53 <=1 
C769: x27+x54-y27_54 <=1 
C770: x27+x55-y27_55 <=1 
C771: x27+x57-y27_57 <=1 
C772: x28+x31 <=1 
C773: x28+x32 <=1 
C774: x28+x33-y28_33 <=1 
C775: x28+x34-y28_34 <=1 
C776: x28+x35-y28_35 <=1 
C777: x28+x36-y28_36 <=1 
C778: x28+x37-y28_37 <=1 
C779: x28+x40 <=1 
C780: x28+x42 <=1 
C781: x28+x43 <=1 
C782: x28+x46 <=1 
C783: x28+x48 <=1 
C784: x28+x49 <=1 
C785: x28+x50-y28_50 <=1 
C786: x28+x51-y28_51 <=1 
C787: x28+x52-y28_52 <=1 
C788: x28+x55-y28_55 <=1 
C789: x28+x56 <=1 
C790: x28+x57 <=1 
C791: x28+x59 <=1 
C792: x29+x31 <=1 
C793: x29+x32 <=1 
C794: x29+x35-y29_35 <=1 
C795: x29+x38-y29_38 <=1 
C796: x29+x40 <=1 
C797: x29+x41-y29_41 <=1 
C798: x29+x42-y29_42 <=1 
C799: x29+x43-y29_43 <=1 
C800: x29+x44-y29_44 <=1 
C801: x29+x45-y29_45 <=1 
C802: x29+x46 <=1 
C803: x29+x48 <=1 
C804: x29+x49-y29_49 <=1 
C805: x29+x50 <=1 
C806: x29+x52-y29_52 <=1 
C807: x29+x53-y29_53 <=1 
C808: x29+x54 <=1 
C809: x29+x55 <=1 
C810: x29+x56 <=1 
C811: x29+x57 <=1 
C812: x29+x59 <=1 
C813: x30+x31-y30_31 <=1 
C814: x30+x32 <=1 
C815: x30+x33 <=1 
C816: x30+x34-y30_34 <=1 
C817: x30+x35-y30_35 <=1 
C818: x30+x38 <=1 
C819: x30+x40-y30_40 <=1 
C820: x30+x42-y30_42 <=1 
C821: x30+x43-y30_43 <=1 
C822: x30+x45 <=1 
C823: x30+x47 <=1 
C824: x30+x48-y30_48 <=1 
C825: x30+x52 <=1 
C826: x30+x54 <=1 
C827: x30+x56 <=1 
C828: x31+x32-y31_32 <=1 
C829: x31+x33-y31_33 <=1 
C830: x31+x34 <=1 
C831: x31+x35 <=1 
C832: x31+x37-y31_37 <=1 
C833: x31+x38-y31_38 <=1 
C834: x31+x39 <=1 
C835: x31+x42 <=1 
C836: x31+x43-y31_43 <=1 
C837: x31+x44 <=1 
C838: x31+x45 <=1 
C839: x31+x46 <=1 
C840: x31+x47 <=1 
C841: x31+x48-y31_48 <=1 
C842: x31+x49-y31_49 <=1 
C843: x31+x50 <=1 
C844: x31+x53 <=1 
C845: x31+x55 <=1 
C846: x31+x57-y31_57 <=1 
C847: x32+x37-y32_37 <=1 
C848: x32+x40 <=1 
C849: x32+x41-y32_41 <=1 
C850: x32+x42 <=1 
C851: x32+x43 <=1 
C852: x32+x44-y32_44 <=1 
C853: x32+x45-y32_45 <=1 
C854: x32+x46 <=1 
C855: x32+x48 <=1 
C856: x32+x49-y32_49 <=1 
C857: x32+x51-y32_51 <=1 
C858: x32+x54 <=1 
C859: x32+x55-y32_55 <=1 
C860: x32+x56 <=1 
C861: x32+x57-y32_57 <=1 
C862: x33+x35-y33_35 <=1 
C863: x33+x36-y33_36 <=1 
C864: x33+x37-y33_37 <=1 
C865: x33+x42 <=1 
C866: x33+x43 <=1 
C867: x33+x44 <=1 
C868: x33+x45 <=1 
C869: x33+x47-y33_47 <=1 
C870: x33+x48 <=1 
C871: x33+x49-y33_49 <=1 
C872: x33+x50-y33_50 <=1 
C873: x33+x52-y33_52 <=1 
C874: x33+x54-y33_54 <=1 
C875: x33+x56 <=1 
C876: x33+x58 <=1 
C877: x33+x59-y33_59 <=1 
C878: x34+x35-y34_35 <=1 
C879: x34+x36-y34_36 <=1 
C880: x34+x38 <=1 
C881: x34+x40-y34_40 <=1 
C882: x34+x42-y34_42 <=1 
C883: x34+x43 <=1 
C884: x34+x44-y34_44 <=1 
C885: x34+x46-y34_46 <=1 
C886: x34+x48 <=1 
C887: x34+x49-y34_49 <=1 
C888: x34+x51-y34_51 <=1 
C889: x34+x52-y34_52 <=1 
C890: x34+x53 <=1 
C891: x34+x54-y34_54 <=1 
C892: x34+x55-y34_55 <=1 
C893: x34+x56 <=1 
C894: x34+x57-y34_57 <=1 
C895: x34+x58-y34_58 <=1 
C896: x34+x59-y34_59 <=1 
C897: x35+x36 <=1 
C898: x35+x37 <=1 
C899: x35+x41 <=1 
C900: x35+x46-y35_46 <=1 
C901: x35+x48-y35_48 <=1 
C902: x35+x52 <=1 
C903: x35+x54-y35_54 <=1 
C904: x35+x55 <=1 
C905: x35+x58-y35_58 <=1 
C906: x35+x59 <=1 
C907: x36+x37 <=1 
C908: x36+x38 <=1 
C909: x36+x40-y36_40 <=1 
C910: x36+x41 <=1 
C911: x36+x42 <=1 
C912: x36+x47 <=1 
C913: x36+x49-y36_49 <=1 
C914: x36+x50-y36_50 <=1 
C915: x36+x51-y36_51 <=1 
C916: x36+x54 <=1 
C917: x36+x56-y36_56 <=1 
C918: x37+x38-y37_38 <=1 
C919: x37+x45-y37_45 <=1 
C920: x37+x46-y37_46 <=1 
C921: x37+x47 <=1 
C922: x37+x49-y37_49 <=1 
C923: x37+x50 <=1 
C924: x37+x51-y37_51 <=1 
C925: x37+x52-y37_52 <=1 
C926: x37+x54-y37_54 <=1 
C927: x37+x56 <=1 
C928: x38+x39-y38_39 <=1 
C929: x38+x40-y38_40 <=1 
C930: x38+x41-y38_41 <=1 
C931: x38+x47-y38_47 <=1 
C932: x38+x49 <=1 
C933: x38+x51 <=1 
C934: x38+x52-y38_52 <=1 
C935: x38+x53 <=1 
C936: x38+x57-y38_57 <=1 
C937: x38+x58-y38_58 <=1 
C938: x38+x59-y38_59 <=1 
C939: x39+x41-y39_41 <=1 
C940: x39+x42-y39_42 <=1 
C941: x39+x44 <=1 
C942: x39+x45 <=1 
C943: x39+x46-y39_46 <=1 
C944: x39+x48-y39_48 <=1 
C945: x39+x49-y39_49 <=1 
C946: x39+x50 <=1 
C947: x39+x52-y39_52 <=1 
C948: x39+x54 <=1 
C949: x39+x55-y39_55 <=1 
C950: x39+x56-y39_56 <=1 
C951: x39+x59-y39_59 <=1 
C952: x40+x41 <=1 
C953: x40+x42 <=1 
C954: x40+x44 <=1 
C955: x40+x45-y40_45 <=1 
C956: x40+x47-y40_47 <=1 
C957: x40+x48-y40_48 <=1 
C958: x40+x49 <=1 
C959: x40+x50 <=1 
C960: x40+x52-y40_52 <=1 
C961: x40+x53 <=1 
C962: x40+x55 <=1 
C963: x40+x57 <=1 
C964: x40+x59-y40_59 <=1 
C965: x41+x42 <=1 
C966: x41+x43 <=1 
C967: x41+x44-y41_44 <=1 
C968: x41+x45-y41_45 <=1 
C969: x41+x47 <=1 
C970: x41+x50 <=1 
C971: x41+x51-y41_51 <=1 
C972: x41+x52-y41_52 <=1 
C973: x41+x57 <=1 
C974: x41+x58-y41_58 <=1 
C975: x41+x59 <=1 
C976: x42+x44 <=1 
C977: x42+x45-y42_45 <=1 
C978: x42+x46 <=1 
C979: x42+x48-y42_48 <=1 
C980: x42+x49 <=1 
C981: x42+x51-y42_51 <=1 
C982: x42+x53-y42_53 <=1 
C983: x42+x54 <=1 
C984: x42+x56 <=1 
C985: x42+x57 <=1 
C986: x42+x58 <=1 
C987: x43+x44-y43_44 <=1 
C988: x43+x45 <=1 
C989: x43+x47-y43_47 <=1 
C990: x43+x53 <=1 
C991: x43+x54-y43_54 <=1 
C992: x43+x56 <=1 
C993: x43+x57 <=1 
C994: x43+x58-y43_58 <=1 
C995: x43+x59 <=1 
C996: x44+x45 <=1 
C997: x44+x47-y44_47 <=1 
C998: x44+x48 <=1 
C999: x44+x49-y44_49 <=1 
C1000: x44+x50-y44_50 <=1 
C1001: x44+x52-y44_52 <=1 
C1002: x44+x53 <=1 
C1003: x44+x55-y44_55 <=1 
C1004: x44+x56 <=1 
C1005: x44+x57-y44_57 <=1 
C1006: x44+x58 <=1 
C1007: x44+x59 <=1 
C1008: x45+x47 <=1 
C1009: x45+x48-y45_48 <=1 
C1010: x45+x51-y45_51 <=1 
C1011: x45+x53-y45_53 <=1 
C1012: x45+x54 <=1 
C1013: x45+x56-y45_56 <=1 
C1014: x45+x57-y45_57 <=1 
C1015: x45+x58-y45_58 <=1 
C1016: x46+x48-y46_48 <=1 
C1017: x46+x49 <=1 
C1018: x46+x51-y46_51 <=1 
C1019: x46+x52 <=1 
C1020: x46+x53-y46_53 <=1 
C1021: x46+x54 <=1 
C1022: x46+x55-y46_55 <=1 
C1023: x46+x58-y46_58 <=1 
C1024: x46+x59 <=1 
C1025: x47+x50-y47_50 <=1 
C1026: x47+x52 <=1 
C1027: x47+x53 <=1 
C1028: x47+x55-y47_55 <=1 
C1029: x47+x56-y47_56 <=1 
C1030: x47+x57-y47_57 <=1 
C1031: x47+x58 <=1 
C1032: x48+x49 <=1 
C1033: x48+x54 <=1 
C1034: x48+x55-y48_55 <=1 
C1035: x48+x56 <=1 
C1036: x48+x57-y48_57 <=1 
C1037: x48+x59-y48_59 <=1 
C1038: x49+x50 <=1 
C1039: x49+x53 <=1 
C1040: x49+x54-y49_54 <=1 
C1041: x49+x55 <=1 
C1042: x49+x57-y49_57 <=1 
C1043: x49+x58 <=1 
C1044: x49+x59-y49_59 <=1 
C1045: x50+x52 <=1 
C1046: x50+x53-y50_53 <=1 
C1047: x50+x55-y50_55 <=1 
C1048: x50+x56 <=1 
C1049: x50+x58 <=1 
C1050: x50+x59-y50_59 <=1 
C1051: x51+x55-y51_55 <=1 
C1052: x51+x56 <=1 
C1053: x51+x58 <=1 
C1054: x52+x55-y52_55 <=1 
C1055: x52+x59-y52_59 <=1 
C1056: x53+x54 <=1 
C1057: x53+x57-y53_57 <=1 
C1058: x53+x58 <=1 
C1059: x54+x59-y54_59 <=1 
C1060: x55+x57-y55_57 <=1 
C1061: x55+x58-y55_58 <=1 
C1062: x55+x59-y55_59 <=1 
C1063: x56+x59-y56_59 <=1 
C1064: x57+x59-y57_59 <=1 

binary
x0
x1
x2
x3
x4
x5
x6
x7
x8
x9
x10
x11
x12
x13
x14
x15
x16
x17
x18
x19
x20
x21
x22
x23
x24
x25
x26
x27
x28
x29
x30
x31
x32
x33
x34
x35
x36
x37
x38
x39
x40
x41
x42
x43
x44
x45
x46
x47
x48
x49
x50
x51
x52
x53
x54
x55
x56
x57
x58
x59
