problem_generation/data/GISP/train/er_n=60_m=1064_p=0.60_SET2_setparam=100.00_alpha=0.50_559.sol
objective value:                                 1174
x11                                                 1 	(obj:100)
x12                                                 1 	(obj:100)
x17                                                 1 	(obj:100)
x19                                                 1 	(obj:100)
x22                                                 1 	(obj:100)
x33                                                 1 	(obj:100)
x36                                                 1 	(obj:100)
x39                                                 1 	(obj:100)
x51                                                 1 	(obj:100)
x52                                                 1 	(obj:100)
x53                                                 1 	(obj:100)
x57                                                 1 	(obj:100)
y17_53                                              1 	(obj:-1)
y17_57                                              1 	(obj:-1)
y36_51                                              1 	(obj:-1)
y39_52                                              1 	(obj:-1)
y12_53                                              1 	(obj:-1)
y12_39                                              1 	(obj:-1)
y11_51                                              1 	(obj:-1)
y12_52                                              1 	(obj:-1)
y53_57                                              1 	(obj:-1)
y12_33                                              1 	(obj:-1)
y12_19                                              1 	(obj:-1)
y11_12                                              1 	(obj:-1)
y33_36                                              1 	(obj:-1)
y17_51                                              1 	(obj:-1)
y22_39                                              1 	(obj:-1)
y17_36                                              1 	(obj:-1)
y12_51                                              1 	(obj:-1)
y19_53                                              1 	(obj:-1)
y11_53                                              1 	(obj:-1)
y11_39                                              1 	(obj:-1)
y12_17                                              1 	(obj:-1)
y22_57                                              1 	(obj:-1)
y19_51                                              1 	(obj:-1)
y33_52                                              1 	(obj:-1)
y22_33                                              1 	(obj:-1)
y22_51                                              1 	(obj:-1)
